(set-logic QF_AUFBV)
(declare-fun bvlambda_1_ () (_ BitVec 1))
(declare-fun bvlambda_2_ () (_ BitVec 2))
(declare-fun bvlambda_3_ () (_ BitVec 1))
(declare-fun bvlambda_4_ () (_ BitVec 6))
(declare-fun bvlambda_6_ () (_ BitVec 1))
(declare-fun bvlambda_8_ () (_ BitVec 3))
(declare-fun bvlambda_10_ () (_ BitVec 1))
(declare-fun bvlambda_11_ () (_ BitVec 9))
(declare-fun bvlambda_12_ () (_ BitVec 1))
(declare-fun bvlambda_13_ () (_ BitVec 1))
(declare-fun bvlambda_14_ () (_ BitVec 1))
(declare-fun bvlambda_17_ () (_ BitVec 1))
(declare-fun bvlambda_18_ () (_ BitVec 1))
(declare-fun bvlambda_21_ () (_ BitVec 1))
(declare-fun bvlambda_22_ () (_ BitVec 9))
(declare-fun bvlambda_23_ () (_ BitVec 1))
(declare-fun bvlambda_24_ () (_ BitVec 1))
(declare-fun bvlambda_25_ () (_ BitVec 1))
(declare-fun bvlambda_26_ () (_ BitVec 1))
(declare-fun bvlambda_27_ () (_ BitVec 1))
(declare-fun a44 () (Array (_ BitVec 7) (_ BitVec 9)))
(declare-fun a45 () (Array (_ BitVec 15) (_ BitVec 9)))
(declare-fun a46 () (Array (_ BitVec 10) (_ BitVec 2)))
(declare-fun a47 () (Array (_ BitVec 12) (_ BitVec 4)))
(declare-fun a48 () (Array (_ BitVec 1) (_ BitVec 13)))
(declare-fun a49 () (Array (_ BitVec 13) (_ BitVec 13)))
(declare-fun a50 () (Array (_ BitVec 10) (_ BitVec 11)))
(assert
(let (($e1 (_ bv0 1)))
(let (($e2 (_ bv26554 15)))
(let (($e3 (_ bv2858 13)))
(let (($e4 (_ bv10170 14)))
(let (($e5 (_ bv0 3)))
(let (($e6 (_ bv16382 14)))
(let (($e7 (_ bv0 4)))
(let (($e8 (_ bv0 7)))
(let (($e9 (_ bv0 11)))
(let (($e10 (_ bv0 5)))
(let (($e11 (_ bv0 6)))
(let (($e12 (_ bv0 12)))
(let (($e13 (_ bv2858 15)))
(let (($e14 (_ bv1022 10)))
(let (($e15 (_ bv0 9)))
(let (($e16 (_ bv0 14)))
(let (($e17 (_ bv0 2)))
(let (($e18 (_ bv144 9)))
(let (($e19 (_ bv0 8)))
(let (($e20 (_ bv0 13)))
(let (($e21 (_ bv880 13)))
(let (($e22 (_ bv0 15)))
(let (($e23 (_ bv8160 13)))
(let (($e51 (ite (= bvlambda_18_ bvlambda_25_) #b1 #b0)))
(let (($e52 (ite (= bvlambda_17_ bvlambda_24_) #b1 #b0)))
(let (($e53 (bvand $e52 $e51)))
(let (($e54 (ite (= bvlambda_25_ bvlambda_27_) #b1 #b0)))
(let (($e55 (ite (= bvlambda_24_ bvlambda_26_) #b1 #b0)))
(let (($e56 (bvand $e55 $e54)))
(let (($e57 (ite (= bvlambda_14_ bvlambda_27_) #b1 #b0)))
(let (($e58 (ite (= bvlambda_13_ bvlambda_26_) #b1 #b0)))
(let (($e59 (bvand $e58 $e57)))
(let (($e60 (bvand $e59 $e56)))
(let (($e61 (bvand $e60 $e53)))
(let (($e62 (ite (= bvlambda_14_ bvlambda_18_) #b1 #b0)))
(let (($e63 (ite (= bvlambda_13_ bvlambda_17_) #b1 #b0)))
(let (($e64 (bvand $e63 $e62)))
(let (($e65 (bvand $e64 $e61)))
(let (($e66 (store a48 $e1 $e3)))
(let (($e67 (select $e66 $e65)))
(let (($e68 (ite (= $e20 $e67) #b1 #b0)))
(let (($e69 (ite (= (bvnot $e20) $e67) #b1 #b0)))
(let (($e70 (ite (= bvlambda_12_ bvlambda_23_) #b1 #b0)))
(let (($e71 (ite (= bvlambda_11_ bvlambda_22_) #b1 #b0)))
(let (($e72 (ite (= bvlambda_10_ bvlambda_21_) #b1 #b0)))
(let (($e73 (bvand $e72 $e71)))
(let (($e74 (bvand $e73 $e70)))
(let (($e75 (ite (= $e5 bvlambda_8_) #b1 #b0)))
(let (($e76 (bvand $e75 $e74)))
(let (($e77 (concat $e22 (bvnot $e76))))
(let (($e78 (concat $e1 bvlambda_8_)))
(let (($e79 (concat $e78 bvlambda_21_)))
(let (($e80 (concat $e79 bvlambda_22_)))
(let (($e81 (concat $e80 bvlambda_23_)))
(let (($e82 (bvurem $e81 (bvnot $e2))))
(let (($e83 (concat $e17 bvlambda_13_)))
(let (($e84 (concat $e83 bvlambda_14_)))
(let (($e85 (concat $e84 bvlambda_26_)))
(let (($e86 (concat $e85 bvlambda_27_)))
(let (($e87 (concat $e86 bvlambda_24_)))
(let (($e88 (concat $e87 bvlambda_25_)))
(let (($e89 (concat $e88 bvlambda_17_)))
(let (($e90 (concat $e89 bvlambda_18_)))
(let (($e91 (concat (bvnot $e17) bvlambda_13_)))
(let (($e92 (concat $e91 bvlambda_14_)))
(let (($e93 (concat $e92 bvlambda_26_)))
(let (($e94 (concat $e93 bvlambda_27_)))
(let (($e95 (concat $e94 bvlambda_24_)))
(let (($e96 (concat $e95 bvlambda_25_)))
(let (($e97 (concat $e96 bvlambda_17_)))
(let (($e98 (concat $e97 bvlambda_18_)))
(let (($e99 (ite (= #b1 bvlambda_13_) $e98 $e90)))
(let (($e100 ((_ extract 8 0) $e99)))
(let (($e101 (ite (bvult $e100 $e18) #b1 #b0)))
(let (($e102 ((_ extract 9 9) $e99)))
(let (($e103 (bvand (bvnot $e102) (bvnot $e101))))
(let (($e104 (concat (bvnot $e103) $e82)))
(let (($e105 (ite (bvult $e104 $e77) #b1 #b0)))
(let (($e106 (concat $e10 bvlambda_26_)))
(let (($e107 (concat $e106 bvlambda_27_)))
(let (($e108 (concat $e107 bvlambda_24_)))
(let (($e109 (concat $e108 bvlambda_25_)))
(let (($e110 (concat $e109 bvlambda_17_)))
(let (($e111 (concat $e110 bvlambda_18_)))
(let (($e112 (concat $e111 bvlambda_13_)))
(let (($e113 (concat $e112 bvlambda_14_)))
(let (($e114 (store a48 $e1 $e113)))
(let (($e115 (select $e114 bvlambda_6_)))
(let (($e116 (bvand $e21 $e115)))
(let (($e117 (bvand (bvnot $e21) (bvnot $e115))))
(let (($e118 (bvand (bvnot $e117) (bvnot $e116))))
(let (($e119 (concat $e5 bvlambda_1_)))
(let (($e120 (concat $e119 bvlambda_2_)))
(let (($e121 (concat $e120 bvlambda_3_)))
(let (($e122 (concat $e121 bvlambda_4_)))
(let (($e123 (concat (bvnot $e5) bvlambda_1_)))
(let (($e124 (concat $e123 bvlambda_2_)))
(let (($e125 (concat $e124 bvlambda_3_)))
(let (($e126 (concat $e125 bvlambda_4_)))
(let (($e127 (ite (= #b1 bvlambda_1_) $e126 $e122)))
(let (($e128 (ite (bvult $e127 $e118) #b1 #b0)))
(let (($e129 (bvand (bvnot $e128) (bvnot $e105))))
(let (($e130 (bvand $e128 $e105)))
(let (($e131 (bvand (bvnot $e130) (bvnot $e129))))
(let (($e132 (concat $e8 bvlambda_13_)))
(let (($e133 (concat $e132 bvlambda_14_)))
(let (($e134 (concat $e133 bvlambda_26_)))
(let (($e135 (concat $e134 bvlambda_27_)))
(let (($e136 (concat $e135 bvlambda_24_)))
(let (($e137 (concat $e136 bvlambda_25_)))
(let (($e138 (concat $e137 bvlambda_17_)))
(let (($e139 (concat $e138 bvlambda_18_)))
(let (($e140 (select a45 $e139)))
(let (($e141 ((_ extract 8 8) $e140)))
(let (($e142 (concat $e5 bvlambda_10_)))
(let (($e143 (concat $e142 bvlambda_11_)))
(let (($e144 (concat $e143 bvlambda_12_)))
(let (($e145 (ite (bvult (bvnot $e4) $e144) #b1 #b0)))
(let (($e146 (concat $e19 $e145)))
(let (($e147 (concat (bvnot $e19) $e145)))
(let (($e148 (ite (= #b1 $e145) $e147 $e146)))
(let (($e149 ((_ extract 8 8) $e148)))
(let (($e150 (ite (= $e149 $e141) #b1 #b0)))
(let (($e151 ((_ extract 7 0) $e148)))
(let (($e152 ((_ extract 7 0) $e140)))
(let (($e153 (ite (bvult $e152 $e151) #b1 #b0)))
(let (($e154 (bvand $e153 $e150)))
(let (($e155 (bvand (bvnot $e149) $e141)))
(let (($e156 (bvand (bvnot $e155) (bvnot $e154))))
(let (($e157 (concat $e7 bvlambda_26_)))
(let (($e158 (concat $e157 bvlambda_27_)))
(let (($e159 (concat $e158 bvlambda_24_)))
(let (($e160 (concat $e159 bvlambda_25_)))
(let (($e161 (concat $e160 bvlambda_17_)))
(let (($e162 (concat $e161 bvlambda_18_)))
(let (($e163 (concat $e162 bvlambda_13_)))
(let (($e164 (concat $e163 bvlambda_14_)))
(let (($e165 (concat $e164 $e156)))
(let (($e166 (bvand $e67 $e165)))
(let (($e167 ((_ extract 12 12) $e166)))
(let (($e168 (concat bvlambda_8_ bvlambda_21_)))
(let (($e169 (concat $e168 bvlambda_22_)))
(let (($e170 (concat $e169 bvlambda_23_)))
(let (($e171 (bvadd (bvnot $e6) (bvnot $e170))))
(let (($e172 (select $e114 (bvnot $e76))))
(let (($e173 ((_ extract 12 12) $e172)))
(let (($e174 (concat $e173 $e172)))
(let (($e175 (ite (bvult $e174 $e171) #b1 #b0)))
(let (($e176 (bvand (bvnot $e175) (bvnot $e167))))
(let (($e177 (concat bvlambda_1_ bvlambda_2_)))
(let (($e178 (concat $e177 bvlambda_3_)))
(let (($e179 (concat $e178 bvlambda_4_)))
(let (($e180 (bvadd (bvnot $e14) (bvnot $e179))))
(let (($e181 (ite (= #b1 bvlambda_1_) $e180 $e179)))
(let (($e182 (concat $e15 $e65)))
(let (($e183 (bvurem $e182 $e181)))
(let (($e184 ((_ extract 9 9) $e183)))
(let (($e185 (concat $e184 $e183)))
(let (($e186 (select a50 (bvnot $e14))))
(let (($e187 (ite (bvult $e186 $e185) #b1 #b0)))
(let (($e188 (bvand (bvnot $e187) $e176)))
(let (($e189 (concat $e9 $e65)))
(let (($e190 (concat (bvnot $e9) $e65)))
(let (($e191 (ite (= #b1 $e65) $e190 $e189)))
(let (($e192 (select a47 $e191)))
(let (($e193 ((_ extract 2 0) $e192)))
(let (($e194 (concat $e11 (bvnot $e76))))
(let (($e195 (select a44 $e194)))
(let (($e196 (concat $e7 $e195)))
(let (($e197 (select a49 $e196)))
(let (($e198 (concat $e17 $e197)))
(let (($e199 (concat (bvnot $e17) $e197)))
(let (($e200 ((_ extract 12 12) $e197)))
(let (($e201 (ite (= #b1 $e200) $e199 $e198)))
(let (($e202 ((_ extract 0 0) $e201)))
(let (($e203 (ite (= bvlambda_12_ $e202) #b1 #b0)))
(let (($e204 ((_ extract 9 1) $e201)))
(let (($e205 (ite (= bvlambda_11_ $e204) #b1 #b0)))
(let (($e206 ((_ extract 10 10) $e201)))
(let (($e207 (ite (= bvlambda_10_ $e206) #b1 #b0)))
(let (($e208 (bvand $e207 $e205)))
(let (($e209 (bvand $e208 $e203)))
(let (($e210 ((_ extract 14 11) $e201)))
(let (($e211 (ite (= $e7 $e210) #b1 #b0)))
(let (($e212 (bvand $e211 $e209)))
(let (($e213 (concat $e17 $e212)))
(let (($e214 (ite (bvult $e213 $e193) #b1 #b0)))
(let (($e215 ((_ extract 3 3) $e192)))
(let (($e216 (bvand (bvnot $e215) $e214)))
(let (($e217 (bvand (bvnot $e216) $e188)))
(let (($e218 (bvand (bvnot $e217) $e131)))
(let (($e219 (select a48 bvlambda_3_)))
(let (($e220 ((_ extract 11 0) $e118)))
(let (($e221 ((_ extract 12 0) $e171)))
(let (($e222 (concat $e7 $e140)))
(let (($e223 (ite (bvult $e222 $e221) #b1 #b0)))
(let (($e224 ((_ extract 13 13) $e171)))
(let (($e225 (bvand (bvnot $e224) $e223)))
(let (($e226 (concat (bvnot $e5) (bvnot $e225))))
(let (($e227 (concat $e5 (bvnot $e225))))
(let (($e228 (ite (= #b1 $e225) $e227 $e226)))
(let (($e229 (ite (bvult $e192 $e228) #b1 #b0)))
(let (($e230 (concat $e9 $e229)))
(let (($e231 (ite (bvult $e230 $e220) #b1 #b0)))
(let (($e232 ((_ extract 12 12) $e118)))
(let (($e233 (bvand (bvnot $e232) $e231)))
(let (($e234 (concat $e12 $e233)))
(let (($e235 (concat (bvnot $e12) $e233)))
(let (($e236 (ite (= #b1 $e233) $e235 $e234)))
(let (($e237 (ite (bvult $e236 $e219) #b1 #b0)))
(let (($e238 (select a48 (bvnot $e1))))
(let (($e239 ((_ extract 11 0) $e238)))
(let (($e240 (select a47 $e239)))
(let (($e241 (concat $e11 $e240)))
(let (($e242 (concat (bvnot $e11) $e240)))
(let (($e243 ((_ extract 3 3) $e240)))
(let (($e244 (ite (= #b1 $e243) $e242 $e241)))
(let (($e245 (select a46 $e244)))
(let (($e246 (concat $e20 $e245)))
(let (($e247 (ite (bvult $e246 $e201) #b1 #b0)))
(let (($e248 (bvand (bvnot $e247) (bvnot $e237))))
(let (($e249 (concat $e15 $e192)))
(let (($e250 (concat (bvnot $e15) $e192)))
(let (($e251 (ite (= #b1 $e215) $e250 $e249)))
(let (($e252 (select a49 $e251)))
(let (($e253 ((_ extract 0 0) $e252)))
(let (($e254 (ite (= (bvnot $e103) $e253) #b1 #b0)))
(let (($e255 ((_ extract 12 1) $e252)))
(let (($e256 (ite (= $e12 $e255) #b1 #b0)))
(let (($e257 (bvand $e256 $e254)))
(let (($e258 (concat $e16 $e145)))
(let (($e259 (store a45 $e13 bvlambda_11_)))
(let (($e260 (select $e259 $e258)))
(let (($e261 (concat $e1 $e260)))
(let (($e262 (ite (bvult $e90 $e261) #b1 #b0)))
(let (($e263 (ite (= $e262 (bvnot $e257)) #b1 #b0)))
(let (($e264 ((_ extract 10 1) $e115)))
(let (($e265 (select a50 $e264)))
(let (($e266 (concat $e17 $e265)))
(let (($e267 (concat (bvnot $e17) $e265)))
(let (($e268 ((_ extract 10 10) $e265)))
(let (($e269 (ite (= #b1 $e268) $e267 $e266)))
(let (($e270 (ite (bvult (bvnot $e23) $e269) #b1 #b0)))
(let (($e271 (bvand $e270 (bvnot $e263))))
(let (($e272 (ite (= $e271 $e248) #b1 #b0)))
(let (($e273 (bvand (bvnot $e272) (bvnot $e218))))
(let (($e274 (ite (= (bvnot $e22) $e201) #b1 #b0)))
(let (($e275 (ite (= $e22 $e201) #b1 #b0)))
(let (($e276 (ite (= $e11 bvlambda_4_) #b1 #b0)))
(let (($e277 (ite (= $e17 bvlambda_2_) #b1 #b0)))
(let (($e278 (bvand (bvnot bvlambda_1_) $e277)))
(let (($e279 (bvand (bvnot bvlambda_3_) $e278)))
(let (($e280 (bvand $e279 $e276)))
(let (($e281 (ite (= (bvnot $e11) bvlambda_4_) #b1 #b0)))
(let (($e282 (ite (= (bvnot $e17) bvlambda_2_) #b1 #b0)))
(let (($e283 (bvand bvlambda_1_ $e282)))
(let (($e284 (bvand bvlambda_3_ $e283)))
(let (($e285 (bvand $e284 $e281)))
(let (($e286 (bvand (bvnot $e285) (bvnot $e280))))
(let (($e287 (bvand $e286 (bvnot $e275))))
(let (($e288 (bvand $e287 (bvnot $e274))))
(let (($e289 (bvand $e288 (bvnot $e273))))
(let (($e290 (bvand $e289 (bvnot $e69))))
(let (($e291 (bvand $e290 (bvnot $e68))))
 (not (= $e291 #b0)))))))))))))))))))))))))))))))))))))))))))))))))))))))))))))))))))))))))))))))))))))))))))))))))))))))))))))))))))))))))))))))))))))))))))))))))))))))))))))))))))))))))))))))))))))))))))))))))))))))))))))))))))))))))))))))))))))))))))))))))))))))))))))))))))))))))))
(check-sat)
(exit)
